c generated by sgen
p cnf 89 188
-2 -3 -4 0
-1 -3 -4 0
-1 -2 -4 0
-1 -2 -3 0
-6 -7 -8 0
-5 -7 -8 0
-5 -6 -8 0
-5 -6 -7 0
-10 -11 -12 0
-9 -11 -12 0
-9 -10 -12 0
-9 -10 -11 0
-14 -15 -16 0
-13 -15 -16 0
-13 -14 -16 0
-13 -14 -15 0
-18 -19 -20 0
-17 -19 -20 0
-17 -18 -20 0
-17 -18 -19 0
-22 -23 -24 0
-21 -23 -24 0
-21 -22 -24 0
-21 -22 -23 0
-26 -27 -28 0
-25 -27 -28 0
-25 -26 -28 0
-25 -26 -27 0
-30 -31 -32 0
-29 -31 -32 0
-29 -30 -32 0
-29 -30 -31 0
-34 -35 -36 0
-33 -35 -36 0
-33 -34 -36 0
-33 -34 -35 0
-38 -39 -40 0
-37 -39 -40 0
-37 -38 -40 0
-37 -38 -39 0
-42 -43 -44 0
-41 -43 -44 0
-41 -42 -44 0
-41 -42 -43 0
-46 -47 -48 0
-45 -47 -48 0
-45 -46 -48 0
-45 -46 -47 0
-50 -51 -52 0
-49 -51 -52 0
-49 -50 -52 0
-49 -50 -51 0
-54 -55 -56 0
-53 -55 -56 0
-53 -54 -56 0
-53 -54 -55 0
-58 -59 -60 0
-57 -59 -60 0
-57 -58 -60 0
-57 -58 -59 0
-62 -63 -64 0
-61 -63 -64 0
-61 -62 -64 0
-61 -62 -63 0
-66 -67 -68 0
-65 -67 -68 0
-65 -66 -68 0
-65 -66 -67 0
-70 -71 -72 0
-69 -71 -72 0
-69 -70 -72 0
-69 -70 -71 0
-74 -75 -76 0
-73 -75 -76 0
-73 -74 -76 0
-73 -74 -75 0
-78 -79 -80 0
-77 -79 -80 0
-77 -78 -80 0
-77 -78 -79 0
-82 -83 -84 0
-81 -83 -84 0
-81 -82 -84 0
-81 -82 -83 0
-85 -86 -87 0
-85 -86 -88 0
-85 -86 -89 0
-85 -87 -88 0
-85 -87 -89 0
-85 -88 -89 0
-86 -87 -88 0
-86 -87 -89 0
-86 -88 -89 0
-87 -88 -89 0
50 44 29 0
56 44 29 0
56 50 29 0
56 50 44 0
61 84 38 0
45 84 38 0
45 61 38 0
45 61 84 0
5 72 47 0
49 72 47 0
49 5 47 0
49 5 72 0
39 10 54 0
28 10 54 0
28 39 54 0
28 39 10 0
66 2 60 0
83 2 60 0
83 66 60 0
83 66 2 0
20 42 26 0
48 42 26 0
48 20 26 0
48 20 42 0
46 68 75 0
11 68 75 0
11 46 75 0
11 46 68 0
73 53 34 0
19 53 34 0
19 73 34 0
19 73 53 0
51 80 74 0
59 80 74 0
59 51 74 0
59 51 80 0
65 52 86 0
13 52 86 0
13 65 86 0
13 65 52 0
64 4 8 0
55 4 8 0
55 64 8 0
55 64 4 0
78 22 43 0
70 22 43 0
70 78 43 0
70 78 22 0
3 31 77 0
85 31 77 0
85 3 77 0
85 3 31 0
30 33 9 0
6 33 9 0
6 30 9 0
6 30 33 0
1 40 23 0
14 40 23 0
14 1 23 0
14 1 40 0
37 58 36 0
71 58 36 0
71 37 36 0
71 37 58 0
12 87 17 0
24 87 17 0
24 12 17 0
24 12 87 0
88 25 76 0
69 25 76 0
69 88 76 0
69 88 25 0
62 79 27 0
67 79 27 0
67 62 27 0
67 62 79 0
89 81 21 0
7 81 21 0
7 89 21 0
7 89 81 0
82 16 41 0
35 16 41 0
35 82 41 0
35 82 16 0
18 15 32 0
18 15 57 0
18 15 63 0
18 32 57 0
18 32 63 0
18 57 63 0
15 32 57 0
15 32 63 0
15 57 63 0
32 57 63 0
